webassembly/ejemplos_dzn/7/folder7_json_93.dzn
TERM = { '.', 's(2)', 'in_1', 'local_0', 'local_1', 'in_2', 'in_3', 's(1)', 's(0)', 'in_0'};
null = '.';
s = 7;
n = 9;
ndeps = 3;
max_registers_sz = 4;
NR = 1;
registers = [|'local_0', 'in_1'|];
dependencies = [|'i32.load_2', 'i32.store16_4', |'i32.store16_4', 'i32.load8_u_6', |'i32.load8_s_3', 'i32.store16_4'|];
GET_ENUM = { GET1, GET2, GET3, GET4, GET5};
SET_ENUM = { SET1, SET2, SET3, SET4, SET5};
TEE_ENUM = { TEE1, TEE2, TEE3, TEE4, TEE5};
N = 5;
OP = { 'i32.load_2', 'i32.load8_s_3', 'i32.store16_4', 'i32.load8_u_6', 'local.get_0' };
in_ops = [1, 1, 2, 1, 0 ];
out_ops = [1, 1, 0, 1, 1 ];
in1 = ['in_2', 's(0)', 's(1)', 'local_1', '.' ];
in2 = ['.', '.', 'in_3', '.', '.' ];
in3 = ['.', '.', '.', '.', '.' ];
out1 = ['s(0)', 's(1)', '.', 's(2)', 'local_1' ];
out2 = ['.', '.', '.', '.', '.' ];
out3 = ['.', '.', '.', '.', '.' ];
comm = [false, false, false, false, false ];
gas = [1, 1, 1, 1, 1 ];
sz = [1, 1, 1, 1, 1 ];
stor = [false, false, true, false, false ];
lb = [ 1, 1, 1, 1, 1 ];
ub = [ 7, 7, 7, 7, 7 ];
startstack = [ 'in_0', 'in_1', 'in_2', 'in_3', null, null, null, null, null ];
endstack = [ 's(2)', null, null, null, null, null, null, null, null ];
